NAME          ClpDefau  FREE
ROWS
 N  OBJROW
 L  ZMUNI1_PCT
 L  ZMUNI2_PCT
 L  ZMUNI3_PCT
 L  ZMUNI4_PCT
 L  ZMUNI5_PCT
 L  ZMUNI6_PCT
 L  ZMUNI7_PCT
 L  ZMUNI8_PCT
 L  ZMUNI9_PCT
COLUMNS
    QMUNI1 OBJROW 1.          
    QMUNI1 ZMUNI1_PCT 29354.0954  
    QMUNI1 ZMUNI2_PCT 1770.7824   
    QMUNI1 ZMUNI3_PCT 4302.7878   
    QMUNI1 ZMUNI4_PCT 3220.5582   
    QMUNI1 ZMUNI5_PCT 531.9595    
    QMUNI1 ZMUNI6_PCT 645.2561    
    QMUNI1 ZMUNI7_PCT 1994.7052   
    QMUNI1 ZMUNI8_PCT 1483.9172   
    QMUNI1 ZMUNI9_PCT 375.3662    
    QMUNI2 OBJROW 1.          
    QMUNI2 ZMUNI1_PCT 1707.84     
    QMUNI2 ZMUNI2_PCT 34751.3199  
    QMUNI2 ZMUNI3_PCT 2497.673    
    QMUNI2 ZMUNI4_PCT 2719.4977   
    QMUNI2 ZMUNI5_PCT 5.9128      
    QMUNI2 ZMUNI6_PCT 28.4195     
    QMUNI2 ZMUNI7_PCT 793.8385    
    QMUNI2 ZMUNI8_PCT 987.2436    
    QMUNI2 ZMUNI9_PCT 705.1468    
    QMUNI3 OBJROW 1.          
    QMUNI3 ZMUNI1_PCT 4108.8104   
    QMUNI3 ZMUNI2_PCT 2505.1117   
    QMUNI3 ZMUNI3_PCT 30682.9453  
    QMUNI3 ZMUNI4_PCT 5113.7924   
    QMUNI3 ZMUNI5_PCT 383.377     
    QMUNI3 ZMUNI6_PCT 435.257     
    QMUNI3 ZMUNI7_PCT 1458.7403   
    QMUNI3 ZMUNI8_PCT 1250.267    
    QMUNI3 ZMUNI9_PCT 364.6851    
    QMUNI4 OBJROW 1.          
    QMUNI4 ZMUNI1_PCT 3642.6544   
    QMUNI4 ZMUNI2_PCT 3371.4294   
    QMUNI4 ZMUNI3_PCT 5829.2389   
    QMUNI4 ZMUNI4_PCT 111302.7573 
    QMUNI4 ZMUNI5_PCT 642.5857    
    QMUNI4 ZMUNI6_PCT 692.9398    
    QMUNI4 ZMUNI7_PCT 1982.8797   
    QMUNI4 ZMUNI8_PCT 1924.8962   
    QMUNI4 ZMUNI9_PCT 1465.9882   
    QMUNI5 OBJROW 1.          
    QMUNI5 ZMUNI1_PCT 86.0214     
    QMUNI5 ZMUNI2_PCT 20.0271     
    QMUNI5 ZMUNI3_PCT 61.2259     
    QMUNI5 ZMUNI4_PCT 42.7246     
    QMUNI5 ZMUNI5_PCT 36350.441   
    QMUNI5 ZMUNI6_PCT 2631.3782   
    QMUNI5 ZMUNI7_PCT 164.4135    
    QMUNI5 ZMUNI8_PCT 59.1278     
    QMUNI5 ZMUNI9_PCT  -38.5284   
    QMUNI6 OBJROW 1.          
    QMUNI6 ZMUNI1_PCT 283.6227    
    QMUNI6 ZMUNI2_PCT 86.7843     
    QMUNI6 ZMUNI3_PCT 200.4623    
    QMUNI6 ZMUNI4_PCT 146.1029    
    QMUNI6 ZMUNI5_PCT 3057.2891   
    QMUNI6 ZMUNI6_PCT 33279.6097  
    QMUNI6 ZMUNI7_PCT 409.6985    
    QMUNI6 ZMUNI8_PCT 126.0757    
    QMUNI6 ZMUNI9_PCT  -112.915   
    QMUNI7 OBJROW 1.          
    QMUNI7 ZMUNI1_PCT 1579.2847   
    QMUNI7 ZMUNI2_PCT 901.7944    
    QMUNI7 ZMUNI3_PCT 1398.6588   
    QMUNI7 ZMUNI4_PCT 1117.5156   
    QMUNI7 ZMUNI5_PCT 366.4016    
    QMUNI7 ZMUNI6_PCT 563.8123    
    QMUNI7 ZMUNI7_PCT 32357.0252  
    QMUNI7 ZMUNI8_PCT 2438.9267   
    QMUNI7 ZMUNI9_PCT 610.3516    
    QMUNI8 OBJROW 1.          
    QMUNI8 ZMUNI1_PCT 1482.5821   
    QMUNI8 ZMUNI2_PCT 1236.7248   
    QMUNI8 ZMUNI3_PCT 1487.9227   
    QMUNI8 ZMUNI4_PCT 1253.891    
    QMUNI8 ZMUNI5_PCT 773.2391    
    QMUNI8 ZMUNI6_PCT 741.3864    
    QMUNI8 ZMUNI7_PCT 2835.4645   
    QMUNI8 ZMUNI8_PCT 30014.4195  
    QMUNI8 ZMUNI9_PCT 1607.7042   
    QMUNI9 OBJROW 1.          
    QMUNI9 ZMUNI1_PCT 480.2704    
    QMUNI9 ZMUNI2_PCT 761.9858    
    QMUNI9 ZMUNI3_PCT 557.7087    
    QMUNI9 ZMUNI4_PCT 499.5346    
    QMUNI9 ZMUNI5_PCT 457.9544    
    QMUNI9 ZMUNI6_PCT 397.6822    
    QMUNI9 ZMUNI7_PCT 722.1222    
    QMUNI9 ZMUNI8_PCT 1146.3165   
    QMUNI9 ZMUNI9_PCT 28506.6605  
RHS
    RHS ZMUNI1_PCT  -0.7325613 
    RHS ZMUNI2_PCT -0.097319722
    RHS ZMUNI3_PCT  -0.20283889
    RHS ZMUNI4_PCT 3.4992021299
    RHS ZMUNI5_PCT 0.2557951421
    RHS ZMUNI6_PCT  -0.53261105
    RHS ZMUNI7_PCT 0.6846620145
    RHS ZMUNI8_PCT 0.5360112819
    RHS ZMUNI9_PCT 1.135989259 
BOUNDS
 LO BOUND QMUNI1 -0.000765009
 UP BOUND QMUNI1      1.1e+10
 LO BOUND QMUNI2 -0.00052147 
 UP BOUND QMUNI2      1.1e+10
 LO BOUND QMUNI3 -0.000594159
 UP BOUND QMUNI3      1.1e+10
 LO BOUND QMUNI4 -0.000189939
 UP BOUND QMUNI4      1.1e+10
 LO BOUND QMUNI5 -0.00036776 
 UP BOUND QMUNI5      1.1e+10
 LO BOUND QMUNI6 -0.000543722
 UP BOUND QMUNI6      1.1e+10
 LO BOUND QMUNI7 -0.000193097
 UP BOUND QMUNI7      1.1e+10
 LO BOUND QMUNI8 -0.000305148
 UP BOUND QMUNI8      1.1e+10
 LO BOUND QMUNI9 -0.000291911
 UP BOUND QMUNI9      1.1e+10
ENDATA
